
Gurobi 6.5.2 (win64) logging started 07/22/16 21:24:30


Gurobi 6.5.2 (win64) logging started 07/22/16 21:24:30

Optimize a model with 1518 rows, 250 columns and 3498 nonzeros
Coefficient statistics:
  Matrix range    [1e+00, 4e+02]
  Objective range [2e+00, 4e+02]
  Bounds range    [1e+00, 1e+00]
  RHS range       [1e+00, 2e+03]
Presolve removed 1420 rows and 80 columns
Presolve time: 0.02s
Presolved: 98 rows, 170 columns, 738 nonzeros
Variable types: 0 continuous, 170 integer (170 binary)

Root relaxation: objective 1.845000e+03, 81 iterations, 0.00 seconds

    Nodes    |    Current Node    |     Objective Bounds      |     Work
 Expl Unexpl |  Obj  Depth IntInf | Incumbent    BestBd   Gap | It/Node Time

*    0     0               0    1845.0000000 1845.00000  0.00%     -    0s

Explored 0 nodes (81 simplex iterations) in 0.02 seconds
Thread count was 8 (of 8 available processors)

Optimal solution found (tolerance 1.00e-04)
Best objective 1.845000000000e+03, best bound 1.845000000000e+03, gap 0.0%

Wrote requested result file 'H1\instance13\\Results13SG_Sol3.lp'

